Route #1: 20 34 2 30 29 54
Route #2: 5 45 27 59 24 8 13
Route #3: 25 60 49 36 48 16 7
Route #4: 10 42 9 41 3 61
Route #5: 43 38 31 46 1 18 4 47 52
Route #6: 6 37 35 51 57 62 23 39
Route #7: 26 19 56 15 33 11
Route #8: 12 17 50 22 28
Route #9: 21 40 14 58 32 55 53 44
Cost 1627
Time 0.103178
